*SPEF "ieee 1481-1999"
*DESIGN "binarization"
*DATE "12:17:26 Tuesday September 15, 2026"
*VENDOR "The OpenROAD Project"
*PROGRAM "OpenROAD"
*VERSION "26Q3-2056-g41a28926b9"
*DESIGN_FLOW "NAME_SCOPE LOCAL" "PIN_CAP NONE"
*DIVIDER /
*DELIMITER :
*BUS_DELIMITER []
*T_UNIT 1 NS
*C_UNIT 1 PF
*R_UNIT 1 OHM
*L_UNIT 1 HENRY

*NAME_MAP
*1 _00_
*2 _01_
*3 _02_
*4 _03_
*5 _04_
*6 _05_
*7 _06_
*8 _07_
*9 _08_
*10 _09_
*11 _10_
*12 _11_
*13 _12_
*14 _13_
*15 _14_
*16 _15_
*17 _16_
*18 _17_
*19 _18_
*20 _19_
*21 _20_
*22 _21_
*23 _22_
*24 _23_
*25 _24_
*26 _25_
*27 _26_
*28 _27_
*29 _28_
*30 _29_
*31 _30_
*32 _31_
*33 _32_
*34 _33_
*35 _34_
*36 _35_
*37 clk
*38 net1
*48 net10
*49 net11
*50 net12
*51 net13
*52 net14
*53 net15
*54 net16
*55 net17
*46 net18
*39 net2
*40 net3
*41 net4
*42 net5
*43 net6
*44 net7
*45 net8
*47 net9
*58 pix_in[0]
*59 pix_in[1]
*60 pix_in[2]
*61 pix_in[3]
*62 pix_in[4]
*63 pix_in[5]
*64 pix_in[6]
*65 pix_in[7]
*75 pix_out
*66 rst_n
*67 threshold[0]
*68 threshold[1]
*69 threshold[2]
*70 threshold[3]
*71 threshold[4]
*72 threshold[5]
*73 threshold[6]
*74 threshold[7]
*192 FILLER_0_1
*196 FILLER_0_113
*197 FILLER_0_121
*198 FILLER_0_129
*199 FILLER_0_137
*200 FILLER_0_169
*201 FILLER_0_201
*202 FILLER_0_233
*203 FILLER_0_249
*204 FILLER_0_257
*193 FILLER_0_33
*194 FILLER_0_65
*195 FILLER_0_97
*299 FILLER_10_1
*303 FILLER_10_129
*304 FILLER_10_161
*305 FILLER_10_193
*306 FILLER_10_225
*307 FILLER_10_257
*300 FILLER_10_33
*301 FILLER_10_65
*302 FILLER_10_97
*308 FILLER_11_1
*312 FILLER_11_129
*313 FILLER_11_161
*314 FILLER_11_193
*315 FILLER_11_225
*316 FILLER_11_257
*309 FILLER_11_33
*310 FILLER_11_65
*311 FILLER_11_97
*317 FILLER_12_1
*321 FILLER_12_129
*322 FILLER_12_161
*323 FILLER_12_193
*324 FILLER_12_225
*325 FILLER_12_257
*318 FILLER_12_33
*319 FILLER_12_65
*320 FILLER_12_97
*326 FILLER_13_1
*330 FILLER_13_129
*331 FILLER_13_161
*332 FILLER_13_193
*333 FILLER_13_225
*334 FILLER_13_257
*327 FILLER_13_33
*328 FILLER_13_65
*329 FILLER_13_97
*335 FILLER_14_1
*339 FILLER_14_129
*340 FILLER_14_161
*341 FILLER_14_193
*342 FILLER_14_225
*343 FILLER_14_257
*336 FILLER_14_33
*337 FILLER_14_65
*338 FILLER_14_97
*344 FILLER_15_1
*348 FILLER_15_129
*349 FILLER_15_161
*350 FILLER_15_193
*351 FILLER_15_225
*352 FILLER_15_257
*345 FILLER_15_33
*346 FILLER_15_65
*347 FILLER_15_97
*353 FILLER_16_1
*354 FILLER_16_11
*365 FILLER_16_131
*366 FILLER_16_163
*355 FILLER_16_19
*367 FILLER_16_195
*368 FILLER_16_227
*356 FILLER_16_23
*357 FILLER_16_25
*369 FILLER_16_259
*358 FILLER_16_29
*359 FILLER_16_32
*360 FILLER_16_43
*361 FILLER_16_75
*362 FILLER_16_83
*363 FILLER_16_87
*364 FILLER_16_92
*371 FILLER_17_11
*379 FILLER_17_133
*380 FILLER_17_165
*381 FILLER_17_197
*382 FILLER_17_229
*372 FILLER_17_24
*373 FILLER_17_26
*374 FILLER_17_40
*375 FILLER_17_45
*376 FILLER_17_49
*377 FILLER_17_60
*370 FILLER_17_9
*378 FILLER_17_92
*383 FILLER_18_1
*391 FILLER_18_107
*384 FILLER_18_12
*392 FILLER_18_139
*385 FILLER_18_14
*393 FILLER_18_147
*394 FILLER_18_151
*395 FILLER_18_172
*386 FILLER_18_20
*396 FILLER_18_204
*397 FILLER_18_220
*398 FILLER_18_227
*387 FILLER_18_24
*399 FILLER_18_259
*388 FILLER_18_26
*389 FILLER_18_43
*390 FILLER_18_75
*400 FILLER_19_1
*404 FILLER_19_129
*405 FILLER_19_161
*406 FILLER_19_193
*407 FILLER_19_225
*408 FILLER_19_257
*401 FILLER_19_33
*402 FILLER_19_65
*403 FILLER_19_97
*205 FILLER_1_1
*209 FILLER_1_113
*210 FILLER_1_121
*211 FILLER_1_134
*212 FILLER_1_166
*213 FILLER_1_198
*214 FILLER_1_230
*215 FILLER_1_246
*216 FILLER_1_254
*217 FILLER_1_258
*218 FILLER_1_260
*206 FILLER_1_33
*207 FILLER_1_65
*208 FILLER_1_97
*409 FILLER_20_1
*413 FILLER_20_129
*414 FILLER_20_161
*415 FILLER_20_193
*416 FILLER_20_225
*417 FILLER_20_257
*410 FILLER_20_33
*411 FILLER_20_65
*412 FILLER_20_97
*418 FILLER_21_1
*422 FILLER_21_129
*423 FILLER_21_161
*424 FILLER_21_193
*425 FILLER_21_225
*426 FILLER_21_257
*419 FILLER_21_33
*420 FILLER_21_65
*421 FILLER_21_97
*427 FILLER_22_1
*431 FILLER_22_113
*432 FILLER_22_121
*433 FILLER_22_123
*434 FILLER_22_138
*435 FILLER_22_170
*436 FILLER_22_202
*437 FILLER_22_234
*438 FILLER_22_250
*439 FILLER_22_258
*440 FILLER_22_260
*428 FILLER_22_33
*429 FILLER_22_65
*430 FILLER_22_97
*441 FILLER_23_1
*445 FILLER_23_113
*446 FILLER_23_121
*447 FILLER_23_125
*448 FILLER_23_129
*449 FILLER_23_161
*450 FILLER_23_193
*451 FILLER_23_225
*452 FILLER_23_257
*442 FILLER_23_33
*443 FILLER_23_65
*444 FILLER_23_97
*453 FILLER_24_1
*457 FILLER_24_113
*458 FILLER_24_121
*459 FILLER_24_125
*460 FILLER_24_129
*461 FILLER_24_140
*462 FILLER_24_172
*463 FILLER_24_204
*464 FILLER_24_236
*465 FILLER_24_252
*466 FILLER_24_260
*454 FILLER_24_33
*455 FILLER_24_65
*456 FILLER_24_97
*467 FILLER_25_1
*471 FILLER_25_113
*472 FILLER_25_121
*473 FILLER_25_125
*474 FILLER_25_129
*475 FILLER_25_131
*476 FILLER_25_137
*477 FILLER_25_169
*478 FILLER_25_201
*479 FILLER_25_233
*480 FILLER_25_249
*481 FILLER_25_257
*468 FILLER_25_33
*469 FILLER_25_65
*470 FILLER_25_97
*482 FILLER_26_1
*486 FILLER_26_129
*487 FILLER_26_161
*488 FILLER_26_193
*489 FILLER_26_225
*490 FILLER_26_257
*483 FILLER_26_33
*484 FILLER_26_65
*485 FILLER_26_97
*491 FILLER_27_1
*495 FILLER_27_129
*496 FILLER_27_134
*497 FILLER_27_166
*498 FILLER_27_198
*499 FILLER_27_230
*500 FILLER_27_246
*501 FILLER_27_254
*502 FILLER_27_258
*503 FILLER_27_260
*492 FILLER_27_33
*493 FILLER_27_65
*494 FILLER_27_97
*504 FILLER_28_1
*508 FILLER_28_129
*509 FILLER_28_161
*510 FILLER_28_193
*511 FILLER_28_225
*512 FILLER_28_257
*505 FILLER_28_33
*506 FILLER_28_65
*507 FILLER_28_97
*513 FILLER_29_1
*517 FILLER_29_129
*518 FILLER_29_161
*519 FILLER_29_193
*520 FILLER_29_225
*521 FILLER_29_257
*514 FILLER_29_33
*515 FILLER_29_65
*516 FILLER_29_97
*219 FILLER_2_1
*223 FILLER_2_129
*224 FILLER_2_135
*225 FILLER_2_167
*226 FILLER_2_199
*227 FILLER_2_231
*228 FILLER_2_247
*229 FILLER_2_255
*230 FILLER_2_259
*220 FILLER_2_33
*221 FILLER_2_65
*222 FILLER_2_97
*522 FILLER_30_1
*526 FILLER_30_129
*527 FILLER_30_161
*528 FILLER_30_193
*529 FILLER_30_225
*530 FILLER_30_257
*523 FILLER_30_33
*524 FILLER_30_65
*525 FILLER_30_97
*531 FILLER_31_1
*535 FILLER_31_129
*536 FILLER_31_161
*537 FILLER_31_193
*538 FILLER_31_225
*539 FILLER_31_257
*532 FILLER_31_33
*533 FILLER_31_65
*534 FILLER_31_97
*540 FILLER_32_1
*544 FILLER_32_129
*545 FILLER_32_161
*546 FILLER_32_193
*547 FILLER_32_225
*548 FILLER_32_257
*541 FILLER_32_33
*542 FILLER_32_65
*543 FILLER_32_97
*549 FILLER_33_1
*553 FILLER_33_129
*554 FILLER_33_161
*555 FILLER_33_193
*556 FILLER_33_225
*557 FILLER_33_257
*550 FILLER_33_33
*551 FILLER_33_65
*552 FILLER_33_97
*558 FILLER_34_1
*562 FILLER_34_129
*563 FILLER_34_161
*564 FILLER_34_193
*565 FILLER_34_225
*566 FILLER_34_257
*559 FILLER_34_33
*560 FILLER_34_65
*561 FILLER_34_97
*231 FILLER_3_1
*235 FILLER_3_129
*236 FILLER_3_140
*237 FILLER_3_172
*238 FILLER_3_204
*239 FILLER_3_236
*240 FILLER_3_252
*241 FILLER_3_260
*232 FILLER_3_33
*233 FILLER_3_65
*234 FILLER_3_97
*242 FILLER_4_1
*246 FILLER_4_129
*247 FILLER_4_135
*248 FILLER_4_167
*249 FILLER_4_199
*250 FILLER_4_231
*251 FILLER_4_247
*252 FILLER_4_255
*253 FILLER_4_259
*243 FILLER_4_33
*244 FILLER_4_65
*245 FILLER_4_97
*254 FILLER_5_1
*258 FILLER_5_129
*259 FILLER_5_161
*260 FILLER_5_193
*261 FILLER_5_225
*262 FILLER_5_257
*255 FILLER_5_33
*256 FILLER_5_65
*257 FILLER_5_97
*263 FILLER_6_1
*267 FILLER_6_129
*268 FILLER_6_161
*269 FILLER_6_193
*270 FILLER_6_225
*271 FILLER_6_257
*264 FILLER_6_33
*265 FILLER_6_65
*266 FILLER_6_97
*272 FILLER_7_1
*276 FILLER_7_129
*277 FILLER_7_161
*278 FILLER_7_193
*279 FILLER_7_225
*280 FILLER_7_257
*273 FILLER_7_33
*274 FILLER_7_65
*275 FILLER_7_97
*281 FILLER_8_1
*285 FILLER_8_129
*286 FILLER_8_161
*287 FILLER_8_193
*288 FILLER_8_225
*289 FILLER_8_257
*282 FILLER_8_33
*283 FILLER_8_65
*284 FILLER_8_97
*290 FILLER_9_1
*294 FILLER_9_129
*295 FILLER_9_161
*296 FILLER_9_193
*297 FILLER_9_225
*298 FILLER_9_257
*291 FILLER_9_33
*292 FILLER_9_65
*293 FILLER_9_97
*139 PHY_EDGE_ROW_0_Left_35
*104 PHY_EDGE_ROW_0_Right_0
*149 PHY_EDGE_ROW_10_Left_45
*114 PHY_EDGE_ROW_10_Right_10
*150 PHY_EDGE_ROW_11_Left_46
*115 PHY_EDGE_ROW_11_Right_11
*151 PHY_EDGE_ROW_12_Left_47
*116 PHY_EDGE_ROW_12_Right_12
*152 PHY_EDGE_ROW_13_Left_48
*117 PHY_EDGE_ROW_13_Right_13
*153 PHY_EDGE_ROW_14_Left_49
*118 PHY_EDGE_ROW_14_Right_14
*154 PHY_EDGE_ROW_15_Left_50
*119 PHY_EDGE_ROW_15_Right_15
*155 PHY_EDGE_ROW_16_Left_51
*120 PHY_EDGE_ROW_16_Right_16
*156 PHY_EDGE_ROW_17_Left_52
*121 PHY_EDGE_ROW_17_Right_17
*157 PHY_EDGE_ROW_18_Left_53
*122 PHY_EDGE_ROW_18_Right_18
*158 PHY_EDGE_ROW_19_Left_54
*123 PHY_EDGE_ROW_19_Right_19
*140 PHY_EDGE_ROW_1_Left_36
*105 PHY_EDGE_ROW_1_Right_1
*159 PHY_EDGE_ROW_20_Left_55
*124 PHY_EDGE_ROW_20_Right_20
*160 PHY_EDGE_ROW_21_Left_56
*125 PHY_EDGE_ROW_21_Right_21
*161 PHY_EDGE_ROW_22_Left_57
*126 PHY_EDGE_ROW_22_Right_22
*162 PHY_EDGE_ROW_23_Left_58
*127 PHY_EDGE_ROW_23_Right_23
*163 PHY_EDGE_ROW_24_Left_59
*128 PHY_EDGE_ROW_24_Right_24
*164 PHY_EDGE_ROW_25_Left_60
*129 PHY_EDGE_ROW_25_Right_25
*165 PHY_EDGE_ROW_26_Left_61
*130 PHY_EDGE_ROW_26_Right_26
*166 PHY_EDGE_ROW_27_Left_62
*131 PHY_EDGE_ROW_27_Right_27
*167 PHY_EDGE_ROW_28_Left_63
*132 PHY_EDGE_ROW_28_Right_28
*168 PHY_EDGE_ROW_29_Left_64
*133 PHY_EDGE_ROW_29_Right_29
*141 PHY_EDGE_ROW_2_Left_37
*106 PHY_EDGE_ROW_2_Right_2
*169 PHY_EDGE_ROW_30_Left_65
*134 PHY_EDGE_ROW_30_Right_30
*170 PHY_EDGE_ROW_31_Left_66
*135 PHY_EDGE_ROW_31_Right_31
*171 PHY_EDGE_ROW_32_Left_67
*136 PHY_EDGE_ROW_32_Right_32
*172 PHY_EDGE_ROW_33_Left_68
*137 PHY_EDGE_ROW_33_Right_33
*173 PHY_EDGE_ROW_34_Left_69
*138 PHY_EDGE_ROW_34_Right_34
*142 PHY_EDGE_ROW_3_Left_38
*107 PHY_EDGE_ROW_3_Right_3
*143 PHY_EDGE_ROW_4_Left_39
*108 PHY_EDGE_ROW_4_Right_4
*144 PHY_EDGE_ROW_5_Left_40
*109 PHY_EDGE_ROW_5_Right_5
*145 PHY_EDGE_ROW_6_Left_41
*110 PHY_EDGE_ROW_6_Right_6
*146 PHY_EDGE_ROW_7_Left_42
*111 PHY_EDGE_ROW_7_Right_7
*147 PHY_EDGE_ROW_8_Left_43
*112 PHY_EDGE_ROW_8_Right_8
*148 PHY_EDGE_ROW_9_Left_44
*113 PHY_EDGE_ROW_9_Right_9
*76 _36_
*77 _37_
*78 _38_
*79 _39_
*80 _40_
*81 _41_
*82 _42_
*83 _43_
*84 _44_
*85 _45_
*86 _46_
*87 _47_
*88 _48_
*89 _49_
*90 _50_
*91 _51_
*92 _52_
*93 _53_
*94 _54_
*95 _55_
*96 _56_
*97 _57_
*98 _58_
*99 _59_
*100 _60_
*101 _61_
*102 _62_
*174 input1
*183 input10
*184 input11
*185 input12
*186 input13
*187 input14
*188 input15
*189 input16
*190 input17
*175 input2
*176 input3
*177 input4
*178 input5
*179 input6
*180 input7
*181 input8
*182 input9
*191 output18
*103 pix_out\$_DFF_PN0_

*PORTS
clk I
pix_in[0] I
pix_in[1] I
pix_in[2] I
pix_in[3] I
pix_in[4] I
pix_in[5] I
pix_in[6] I
pix_in[7] I
pix_out O
rst_n I
threshold[0] I
threshold[1] I
threshold[2] I
threshold[3] I
threshold[4] I
threshold[5] I
threshold[6] I
threshold[7] I

*D_NET *1 0.000442308
*CONN
*I *103:D I *D DFFR_X1
*I *94:ZN O *D OAI221_X1
*CAP
1 *103:D 0.000184816
2 *94:ZN 0.000184816
3 *103:D *94:C1 1.72405e-05
4 *103:D *16:14 5.54348e-05
5 *103:D *37:13 0
6 *103:D *47:12 0
*RES
1 *94:ZN *103:D 40.7857 
*END

*D_NET *2 7.19401e-05
*CONN
*I *95:B I *D HA_X1
*I *81:ZN O *D INV_X1
*CAP
1 *95:B 1.94298e-05
2 *81:ZN 1.94298e-05
3 *95:B *93:B2 4.47286e-06
4 *95:B *95:A 2.86077e-05
*RES
1 *81:ZN *95:B 12.75 
*END

*D_NET *3 0.000136701
*CONN
*I *93:A I *D AOI21_X1
*I *95:CO O *D HA_X1
*CAP
1 *93:A 6.83506e-05
2 *95:CO 6.83506e-05
3 *93:A *4:10 0
4 *93:A *4:17 0
*RES
1 *95:CO *93:A 26.8929 
*END

*D_NET *4 0.0016275
*CONN
*I *90:A2 I *D AND4_X2
*I *93:B1 I *D AOI21_X1
*I *95:S O *D HA_X1
*CAP
1 *90:A2 4.70328e-05
2 *93:B1 0
3 *95:S 4.73283e-05
4 *4:17 0.000539216
5 *4:10 0.000539512
6 *90:A2 *91:A 5.59765e-05
7 *90:A2 *31:8 0
8 *90:A2 *33:14 5.56936e-06
9 *4:10 *93:B2 1.64551e-05
10 *4:17 *94:C2 7.53485e-05
11 *4:17 *19:8 0
12 *4:17 *35:8 0.000301059
13 *93:A *4:10 0
14 *93:A *4:17 0
*RES
1 *95:S *4:10 10.6071 
2 *4:10 *93:B1 5 
3 *4:10 *4:17 60.25 
4 *4:17 *90:A2 20.6786 
*END

*D_NET *5 0.000223083
*CONN
*I *96:A I *D HA_X1
*I *76:ZN O *D INV_X1
*CAP
1 *96:A 5.62137e-05
2 *76:ZN 5.62137e-05
3 *96:A *87:A 6.97608e-05
4 *96:A *96:B 4.08953e-05
5 *96:A *25:12 0
*RES
1 *76:ZN *96:A 29.0714 
*END

*D_NET *6 6.78992e-05
*CONN
*I *88:B2 I *D AOI21_X1
*I *96:CO O *D HA_X1
*CAP
1 *88:B2 3.12187e-05
2 *96:CO 3.12187e-05
3 *88:B2 *85:A2 0
4 *88:B2 *88:B1 5.46179e-06
*RES
1 *96:CO *88:B2 13.5357 
*END

*D_NET *7 0.000214632
*CONN
*I *87:A I *D INV_X1
*I *96:S O *D HA_X1
*CAP
1 *87:A 5.055e-05
2 *96:S 5.055e-05
3 *87:A *96:B 4.37715e-05
4 *87:A *25:12 0
5 *96:A *87:A 6.97608e-05
*RES
1 *96:S *87:A 28.0357 
*END

*D_NET *8 0.000177918
*CONN
*I *97:B I *D HA_X1
*I *80:ZN O *D INV_X1
*CAP
1 *97:B 8.31668e-05
2 *80:ZN 8.31668e-05
3 *97:B *80:A 0
4 *97:B *97:A 1.15841e-05
5 *97:B *16:8 0
*RES
1 *80:ZN *97:B 18.6786 
*END

*D_NET *9 1.74261e-05
*CONN
*I *84:B2 I *D AOI21_X1
*I *97:CO O *D HA_X1
*CAP
1 *84:B2 8.71307e-06
2 *97:CO 8.71307e-06
*RES
1 *97:CO *84:B2 10.9286 
*END

*D_NET *10 0.000670981
*CONN
*I *92:A2 I *D NAND2_X1
*I *90:A4 I *D AND4_X2
*I *97:S O *D HA_X1
*CAP
1 *92:A2 0
2 *90:A4 6.50952e-05
3 *97:S 0.000238426
4 *10:6 0.000303521
5 *90:A4 *90:A1 5.23604e-05
6 *90:A4 *90:A3 2.39679e-06
7 *90:A4 *94:C2 2.83434e-06
8 *90:A4 *33:14 6.13128e-06
9 *10:6 *94:A 0
10 *10:6 *33:14 2.16072e-07
*RES
1 *97:S *10:6 28.75 
2 *10:6 *90:A4 13.2857 
3 *10:6 *92:A2 5 
*END

*D_NET *11 0.000325526
*CONN
*I *98:B I *D HA_X1
*I *79:ZN O *D INV_X1
*CAP
1 *98:B 6.86362e-05
2 *79:ZN 6.86362e-05
3 *98:B *83:A 0
4 *98:B *89:A1 9.49605e-05
5 *98:B *101:A 0
6 *98:B *102:A 9.91569e-06
7 *98:B *102:B 5.62244e-05
8 *98:B *177:A 1.61946e-05
9 *98:B *25:12 1.0958e-05
*RES
1 *79:ZN *98:B 31.7857 
*END

*D_NET *12 0.000113737
*CONN
*I *85:A2 I *D AND2_X1
*I *98:CO O *D HA_X1
*CAP
1 *85:A2 4.62368e-05
2 *98:CO 4.62368e-05
3 *85:A2 *88:A 8.20707e-06
4 *85:A2 *21:12 1.30565e-05
5 *88:B2 *85:A2 0
*RES
1 *98:CO *85:A2 15.5714 
*END

*D_NET *13 0.000308576
*CONN
*I *86:A2 I *D NAND2_X1
*I *98:S O *D HA_X1
*CAP
1 *86:A2 1.99488e-05
2 *98:S 1.99488e-05
3 *86:A2 *89:A1 0.000133944
4 *86:A2 *25:12 0.000134734
*RES
1 *98:S *86:A2 27.0357 
*END

*D_NET *14 7.19402e-05
*CONN
*I *99:B I *D HA_X1
*I *78:ZN O *D INV_X1
*CAP
1 *99:B 2.16662e-05
2 *78:ZN 2.16662e-05
3 *99:B *99:A 2.86077e-05
*RES
1 *78:ZN *99:B 12.75 
*END

*D_NET *15 0.000217348
*CONN
*I *84:A I *D AOI21_X1
*I *99:CO O *D HA_X1
*CAP
1 *84:A 8.85657e-05
2 *99:CO 8.85657e-05
3 *84:A *16:8 3.89989e-05
4 *84:A *16:14 1.21774e-06
*RES
1 *99:CO *84:A 20.3571 
*END

*D_NET *16 0.00116771
*CONN
*I *84:B1 I *D AOI21_X1
*I *92:A1 I *D NAND2_X1
*I *90:A1 I *D AND4_X2
*I *99:S O *D HA_X1
*CAP
1 *84:B1 8.71307e-06
2 *92:A1 0
3 *90:A1 7.58399e-05
4 *99:S 0.000104132
5 *16:14 0.000377826
6 *16:8 0.000414831
7 *90:A1 *90:A3 7.16188e-07
8 *90:A1 *94:C1 1.88334e-06
9 *90:A1 *31:8 8.58925e-06
10 *16:8 *97:A 0
11 *16:8 *99:A 0
12 *16:14 *94:A 0
13 *16:14 *94:C1 2.27067e-05
14 *16:14 *97:A 0
15 *16:14 *31:8 4.45767e-06
16 *84:A *16:8 3.89989e-05
17 *84:A *16:14 1.21774e-06
18 *90:A4 *90:A1 5.23604e-05
19 *97:B *16:8 0
20 *103:D *16:14 5.54348e-05
*RES
1 *99:S *16:8 17.2143 
2 *16:8 *16:14 36.1072 
3 *16:14 *90:A1 18.9643 
4 *16:14 *92:A1 10 
5 *16:8 *84:B1 5.92857 
*END

*D_NET *17 8.03177e-05
*CONN
*I *100:B I *D HA_X1
*I *82:ZN O *D INV_X1
*CAP
1 *100:B 3.71145e-05
2 *82:ZN 3.71145e-05
3 *100:B *82:A 0
4 *100:B *100:A 6.0887e-06
*RES
1 *82:ZN *100:B 14.2143 
*END

*D_NET *18 0.000331468
*CONN
*I *93:B2 I *D AOI21_X1
*I *100:CO O *D HA_X1
*CAP
1 *93:B2 0.000152236
2 *100:CO 0.000152236
3 *93:B2 *81:A 6.06867e-06
4 *93:B2 *95:A 0
5 *93:B2 *19:8 0
6 *95:B *93:B2 4.47286e-06
7 *4:10 *93:B2 1.64551e-05
*RES
1 *100:CO *93:B2 26.4643 
*END

*D_NET *19 0.00151777
*CONN
*I *90:A3 I *D AND4_X2
*I *100:S O *D HA_X1
*CAP
1 *90:A3 0.000281416
2 *100:S 0.000444779
3 *19:8 0.000726196
4 *90:A3 *94:C2 6.22643e-05
5 *19:8 *81:A 0
6 *19:8 *35:8 0
7 *90:A1 *90:A3 7.16188e-07
8 *90:A4 *90:A3 2.39679e-06
9 *93:B2 *19:8 0
10 *4:17 *19:8 0
*RES
1 *100:S *19:8 49.3572 
2 *19:8 *90:A3 36.25 
*END

*D_NET *20 0.000111544
*CONN
*I *101:B I *D HA_X1
*I *83:ZN O *D INV_X1
*CAP
1 *101:B 2.08918e-05
2 *83:ZN 2.08918e-05
3 *101:B *89:A1 0
4 *101:B *101:A 6.97608e-05
*RES
1 *83:ZN *101:B 23.6429 
*END

*D_NET *21 0.00101206
*CONN
*I *91:B1 I *D OAI21_X1
*I *89:A2 I *D NOR4_X2
*I *101:CO O *D HA_X1
*CAP
1 *91:B1 0.000231227
2 *89:A2 0
3 *101:CO 0.000113629
4 *21:12 0.000344856
5 *91:B1 *89:A1 1.2453e-05
6 *91:B1 *89:A3 1.46625e-05
7 *91:B1 *89:A4 3.65597e-06
8 *91:B1 *91:A 2.75346e-06
9 *91:B1 *31:8 9.5917e-05
10 *91:B1 *33:14 2.42461e-05
11 *21:12 *89:A1 0.000147189
12 *21:12 *89:A4 8.41616e-06
13 *85:A2 *21:12 1.30565e-05
*RES
1 *101:CO *21:12 24.8929 
2 *21:12 *89:A2 10 
3 *21:12 *91:B1 40.4286 
*END

*D_NET *22 0.000715184
*CONN
*I *91:B2 I *D OAI21_X1
*I *101:S O *D HA_X1
*CAP
1 *91:B2 0
2 *101:S 0.000322983
3 *22:8 0.000322983
4 *22:8 *89:A1 0
5 *22:8 *89:A3 0
6 *22:8 *101:A 6.92191e-05
7 *22:8 *31:8 0
*RES
1 *101:S *22:8 47.5714 
2 *22:8 *91:B2 10 
*END

*D_NET *23 0.000320396
*CONN
*I *102:B I *D HA_X1
*I *77:ZN O *D INV_X1
*CAP
1 *102:B 5.88814e-05
2 *77:ZN 5.88814e-05
3 *102:B *102:A 0.000129255
4 *102:B *177:A 2.00718e-06
5 *102:B *183:A 0
6 *102:B *186:A 1.51466e-05
7 *98:B *102:B 5.62244e-05
*RES
1 *77:ZN *102:B 29.1429 
*END

*D_NET *24 0.00081809
*CONN
*I *89:A1 I *D NOR4_X2
*I *102:CO O *D HA_X1
*CAP
1 *89:A1 0.000111017
2 *102:CO 0.000111017
3 *89:A1 *85:A1 2.18857e-05
4 *89:A1 *86:A1 8.89108e-06
5 *89:A1 *89:A3 0.000147945
6 *89:A1 *89:A4 0
7 *89:A1 *101:A 0
8 *89:A1 *25:12 2.87881e-05
9 *86:A2 *89:A1 0.000133944
10 *91:B1 *89:A1 1.2453e-05
11 *98:B *89:A1 9.49605e-05
12 *101:B *89:A1 0
13 *21:12 *89:A1 0.000147189
14 *22:8 *89:A1 0
*RES
1 *102:CO *89:A1 42.7143 
*END

*D_NET *25 0.000515768
*CONN
*I *85:A1 I *D AND2_X1
*I *86:A1 I *D NAND2_X1
*I *102:S O *D HA_X1
*CAP
1 *85:A1 6.79523e-06
2 *86:A1 1.27369e-06
3 *102:S 0.000118665
4 *25:12 0.000126733
5 *85:A1 *89:A4 2.77917e-07
6 *25:12 *96:B 0
7 *25:12 *102:A 5.67661e-05
8 *25:12 *184:A 0
9 *86:A2 *25:12 0.000134734
10 *87:A *25:12 0
11 *89:A1 *85:A1 2.18857e-05
12 *89:A1 *86:A1 8.89108e-06
13 *89:A1 *25:12 2.87881e-05
14 *96:A *25:12 0
15 *98:B *25:12 1.0958e-05
*RES
1 *102:S *25:12 28.25 
2 *25:12 *86:A1 10.4643 
3 *25:12 *85:A1 11.3929 
*END

*D_NET *26 0.000574005
*CONN
*I *94:A I *D OAI221_X1
*I *84:ZN O *D AOI21_X1
*CAP
1 *94:A 0.000283672
2 *84:ZN 0.000283672
3 *94:A *94:B1 2.39679e-06
4 *94:A *94:C1 1.86809e-06
5 *94:A *94:C2 2.39679e-06
6 *10:6 *94:A 0
7 *16:14 *94:A 0
*RES
1 *84:ZN *94:A 48.25 
*END

*D_NET *27 0.000365289
*CONN
*I *89:A3 I *D NOR4_X2
*I *85:ZN O *D AND2_X1
*CAP
1 *89:A3 4.96021e-05
2 *85:ZN 4.96021e-05
3 *89:A3 *89:A4 7.72792e-06
4 *89:A3 *31:8 9.57501e-05
5 *89:A1 *89:A3 0.000147945
6 *91:B1 *89:A3 1.46625e-05
7 *22:8 *89:A3 0
*RES
1 *85:ZN *89:A3 30.5 
*END

*D_NET *28 0.000160084
*CONN
*I *88:A I *D AOI21_X1
*I *86:ZN O *D NAND2_X1
*CAP
1 *88:A 7.01172e-05
2 *86:ZN 7.01172e-05
3 *88:A *88:B1 1.16425e-05
4 *85:A2 *88:A 8.20707e-06
*RES
1 *86:ZN *88:A 17.9643 
*END

*D_NET *29 7.05929e-05
*CONN
*I *88:B1 I *D AOI21_X1
*I *87:ZN O *D INV_X1
*CAP
1 *88:B1 2.67443e-05
2 *87:ZN 2.67443e-05
3 *88:A *88:B1 1.16425e-05
4 *88:B2 *88:B1 5.46179e-06
*RES
1 *87:ZN *88:B1 13.7857 
*END

*D_NET *30 0.000335603
*CONN
*I *89:A4 I *D NOR4_X2
*I *88:ZN O *D AOI21_X1
*CAP
1 *89:A4 0.000157763
2 *88:ZN 0.000157763
3 *85:A1 *89:A4 2.77917e-07
4 *89:A1 *89:A4 0
5 *89:A3 *89:A4 7.72792e-06
6 *91:B1 *89:A4 3.65597e-06
7 *21:12 *89:A4 8.41616e-06
*RES
1 *88:ZN *89:A4 36.7143 
*END

*D_NET *31 0.00110778
*CONN
*I *94:B1 I *D OAI221_X1
*I *89:ZN O *D NOR4_X2
*CAP
1 *94:B1 1.05268e-05
2 *89:ZN 0
3 *31:8 0.000382105
4 *31:6 0.000371578
5 *94:B1 *94:C2 6.56007e-06
6 *94:B1 *33:14 1.82068e-05
7 *31:8 *33:14 0.000111688
8 *89:A3 *31:8 9.57501e-05
9 *90:A1 *31:8 8.58925e-06
10 *90:A2 *31:8 0
11 *91:B1 *31:8 9.5917e-05
12 *94:A *94:B1 2.39679e-06
13 *16:14 *31:8 4.45767e-06
14 *22:8 *31:8 0
*RES
1 *89:ZN *31:6 10 
2 *31:6 *31:8 52.5 
3 *31:8 *94:B1 11.75 
*END

*D_NET *32 0.000538249
*CONN
*I *91:A I *D OAI21_X1
*I *90:ZN O *D AND4_X2
*CAP
1 *91:A 0.000200309
2 *90:ZN 0.000200309
3 *91:A *33:14 7.89008e-05
4 *90:A2 *91:A 5.59765e-05
5 *91:B1 *91:A 2.75346e-06
*RES
1 *90:ZN *91:A 46.7857 
*END

*D_NET *33 0.000686715
*CONN
*I *94:B2 I *D OAI221_X1
*I *91:ZN O *D OAI21_X1
*CAP
1 *94:B2 0
2 *91:ZN 0.000219571
3 *33:14 0.000219571
4 *33:14 *94:C2 2.61474e-06
5 *90:A2 *33:14 5.56936e-06
6 *90:A4 *33:14 6.13128e-06
7 *91:A *33:14 7.89008e-05
8 *91:B1 *33:14 2.42461e-05
9 *94:B1 *33:14 1.82068e-05
10 *10:6 *33:14 2.16072e-07
11 *31:8 *33:14 0.000111688
*RES
1 *91:ZN *33:14 47.5357 
2 *33:14 *94:B2 5 
*END

*D_NET *34 0.000141147
*CONN
*I *94:C1 I *D OAI221_X1
*I *92:ZN O *D NAND2_X1
*CAP
1 *94:C1 4.83027e-05
2 *92:ZN 4.83027e-05
3 *94:C1 *94:C2 8.43215e-07
4 *90:A1 *94:C1 1.88334e-06
5 *94:A *94:C1 1.86809e-06
6 *103:D *94:C1 1.72405e-05
7 *16:14 *94:C1 2.27067e-05
*RES
1 *92:ZN *94:C1 25.5714 
*END

*D_NET *35 0.00149538
*CONN
*I *94:C2 I *D OAI221_X1
*I *93:ZN O *D AOI21_X1
*CAP
1 *94:C2 0.000298259
2 *93:ZN 0.00022247
3 *35:8 0.000520729
4 *90:A3 *94:C2 6.22643e-05
5 *90:A4 *94:C2 2.83434e-06
6 *94:A *94:C2 2.39679e-06
7 *94:B1 *94:C2 6.56007e-06
8 *94:C1 *94:C2 8.43215e-07
9 *4:17 *94:C2 7.53485e-05
10 *4:17 *35:8 0.000301059
11 *19:8 *35:8 0
12 *33:14 *94:C2 2.61474e-06
*RES
1 *93:ZN *35:8 34.8572 
2 *35:8 *94:C2 41.75 
*END

*D_NET *37 0.00295903
*CONN
*P clk I
*I *103:CK I *D DFFR_X1
*CAP
1 clk 7.74482e-05
2 *103:CK 0
3 *37:13 0.000497167
4 *37:11 0.000574616
5 *37:11 pix_out 5.67718e-06
6 *37:11 *66:11 3.52943e-05
7 *37:13 *46:10 0.00065452
8 *37:13 *47:12 0.000312058
9 *37:13 *66:15 0.000802252
10 *37:13 *75:14 0
11 *103:D *37:13 0
*RES
1 clk *37:11 10.9175 
2 *37:11 *37:13 91.1072 
3 *37:13 *103:CK 10 
*END

*D_NET *38 1.74261e-05
*CONN
*I *76:A I *D INV_X1
*I *174:Z O *D BUF_X1
*CAP
1 *76:A 8.71307e-06
2 *174:Z 8.71307e-06
*RES
1 *174:Z *76:A 10.9286 
*END

*D_NET *48 0.000296086
*CONN
*I *96:B I *D HA_X1
*I *183:Z O *D BUF_X1
*CAP
1 *96:B 9.58541e-05
2 *183:Z 9.58541e-05
3 *96:B *174:A 1.97112e-05
4 *87:A *96:B 4.37715e-05
5 *96:A *96:B 4.08953e-05
6 *25:12 *96:B 0
*RES
1 *183:Z *96:B 33.1429 
*END

*D_NET *49 5.56296e-05
*CONN
*I *79:A I *D INV_X1
*I *184:Z O *D BUF_X1
*CAP
1 *79:A 2.78148e-05
2 *184:Z 2.78148e-05
*RES
1 *184:Z *79:A 12.9643 
*END

*D_NET *50 1.74261e-05
*CONN
*I *77:A I *D INV_X1
*I *185:Z O *D BUF_X1
*CAP
1 *77:A 8.71307e-06
2 *185:Z 8.71307e-06
*RES
1 *185:Z *77:A 10.9286 
*END

*D_NET *51 0.000350528
*CONN
*I *83:A I *D INV_X1
*I *186:Z O *D BUF_X1
*CAP
1 *83:A 8.74266e-05
2 *186:Z 8.74266e-05
3 *83:A *175:A 4.03328e-05
4 *83:A *177:A 2.73867e-05
5 *98:B *83:A 0
6 *101:A *83:A 0.000107955
*RES
1 *186:Z *83:A 33.8214 
*END

*D_NET *52 0.000121412
*CONN
*I *82:A I *D INV_X1
*I *187:Z O *D BUF_X1
*CAP
1 *82:A 6.07058e-05
2 *187:Z 6.07058e-05
3 *100:A *82:A 0
4 *100:B *82:A 0
*RES
1 *187:Z *82:A 26.0357 
*END

*D_NET *53 0.000245796
*CONN
*I *81:A I *D INV_X1
*I *188:Z O *D BUF_X1
*CAP
1 *81:A 7.61119e-05
2 *188:Z 7.61119e-05
3 *93:B2 *81:A 6.06867e-06
4 *95:A *81:A 8.75034e-05
5 *100:A *81:A 0
6 *19:8 *81:A 0
*RES
1 *188:Z *81:A 20.1071 
*END

*D_NET *54 8.95645e-05
*CONN
*I *80:A I *D INV_X1
*I *189:Z O *D BUF_X1
*CAP
1 *80:A 4.47823e-05
2 *189:Z 4.47823e-05
3 *97:B *80:A 0
4 *99:A *80:A 0
*RES
1 *189:Z *80:A 14.4286 
*END

*D_NET *55 0.000185161
*CONN
*I *78:A I *D INV_X1
*I *190:Z O *D BUF_X1
*CAP
1 *78:A 9.25806e-05
2 *190:Z 9.25806e-05
*RES
1 *190:Z *78:A 19.1786 
*END

*D_NET *46 0.00104655
*CONN
*I *191:A I *D BUF_X1
*I *103:Q O *D DFFR_X1
*CAP
1 *191:A 0
2 *103:Q 0.000196014
3 *46:10 0.000196014
4 *37:13 *46:10 0.00065452
*RES
1 *103:Q *46:10 49.1786 
2 *46:10 *191:A 5 
*END

*D_NET *39 9.14434e-05
*CONN
*I *98:A I *D HA_X1
*I *175:Z O *D BUF_X1
*CAP
1 *98:A 4.57217e-05
2 *175:Z 4.57217e-05
*RES
1 *175:Z *98:A 14.2143 
*END

*D_NET *40 0.00045462
*CONN
*I *102:A I *D HA_X1
*I *176:Z O *D BUF_X1
*CAP
1 *102:A 0.000105427
2 *176:Z 0.000105427
3 *102:A *183:A 1.19327e-06
4 *102:A *184:A 2.75346e-06
5 *102:A *186:A 4.38826e-05
6 *98:B *102:A 9.91569e-06
7 *102:B *102:A 0.000129255
8 *25:12 *102:A 5.67661e-05
*RES
1 *176:Z *102:A 34.6429 
*END

*D_NET *41 0.000386056
*CONN
*I *101:A I *D HA_X1
*I *177:Z O *D BUF_X1
*CAP
1 *101:A 6.95606e-05
2 *177:Z 6.95606e-05
3 *101:A *83:A 0.000107955
4 *89:A1 *101:A 0
5 *98:B *101:A 0
6 *101:B *101:A 6.97608e-05
7 *22:8 *101:A 6.92191e-05
*RES
1 *177:Z *101:A 31.8571 
*END

*D_NET *42 9.65491e-05
*CONN
*I *100:A I *D HA_X1
*I *178:Z O *D BUF_X1
*CAP
1 *100:A 4.52302e-05
2 *178:Z 4.52302e-05
3 *100:A *81:A 0
4 *100:A *82:A 0
5 *100:B *100:A 6.0887e-06
*RES
1 *178:Z *100:A 14.6786 
*END

*D_NET *43 0.000351918
*CONN
*I *95:A I *D HA_X1
*I *179:Z O *D BUF_X1
*CAP
1 *95:A 0.000117904
2 *179:Z 0.000117904
3 *95:A *81:A 8.75034e-05
4 *93:B2 *95:A 0
5 *95:B *95:A 2.86077e-05
*RES
1 *179:Z *95:A 24.6786 
*END

*D_NET *44 9.6396e-05
*CONN
*I *97:A I *D HA_X1
*I *180:Z O *D BUF_X1
*CAP
1 *97:A 4.24059e-05
2 *180:Z 4.24059e-05
3 *97:B *97:A 1.15841e-05
4 *16:8 *97:A 0
5 *16:14 *97:A 0
*RES
1 *180:Z *97:A 14.6786 
*END

*D_NET *45 0.00015639
*CONN
*I *99:A I *D HA_X1
*I *181:Z O *D BUF_X1
*CAP
1 *99:A 6.38911e-05
2 *181:Z 6.38911e-05
3 *99:A *80:A 0
4 *99:B *99:A 2.86077e-05
5 *16:8 *99:A 0
*RES
1 *181:Z *99:A 17.25 
*END

*D_NET *47 0.000900817
*CONN
*I *103:RN I *D DFFR_X1
*I *182:Z O *D BUF_X1
*CAP
1 *103:RN 0
2 *182:Z 0
3 *47:12 0.000290807
4 *47:6 0.000290807
5 *47:12 *75:14 7.14424e-06
6 *103:D *47:12 0
7 *37:13 *47:12 0.000312058
*RES
1 *182:Z *47:6 10 
2 *47:6 *47:12 48.3929 
3 *47:12 *103:RN 5 
*END

*D_NET *58 0.000687708
*CONN
*P pix_in[0] I
*I *174:A I *D BUF_X1
*CAP
1 pix_in[0] 0.000255299
2 *174:A 0.000255299
3 *174:A *183:A 0
4 *174:A *184:A 0.000157398
5 *96:B *174:A 1.97112e-05
*RES
1 pix_in[0] *174:A 36.925 
*END

*D_NET *59 0.000821469
*CONN
*P pix_in[1] I
*I *175:A I *D BUF_X1
*CAP
1 pix_in[1] 0.000315201
2 *175:A 0.000315201
3 *175:A *176:A 0.000150733
4 *83:A *175:A 4.03328e-05
*RES
1 pix_in[1] *175:A 40.9093 
*END

*D_NET *60 0.000540084
*CONN
*P pix_in[2] I
*I *176:A I *D BUF_X1
*CAP
1 pix_in[2] 0.000117165
2 *176:A 0.000117165
3 *176:A *177:A 0.000155021
4 *175:A *176:A 0.000150733
*RES
1 pix_in[2] *176:A 27.8893 
*END

*D_NET *61 0.00081239
*CONN
*P pix_in[3] I
*I *177:A I *D BUF_X1
*CAP
1 pix_in[3] 0.000224969
2 *177:A 0.000224969
3 *177:A *186:A 0.000161841
4 *83:A *177:A 2.73867e-05
5 *98:B *177:A 1.61946e-05
6 *102:B *177:A 2.00718e-06
7 *176:A *177:A 0.000155021
*RES
1 pix_in[3] *177:A 40.3179 
*END

*D_NET *62 0.000583586
*CONN
*P pix_in[4] I
*I *178:A I *D BUF_X1
*CAP
1 pix_in[4] 0.000204366
2 *178:A 0.000204366
3 *178:A *187:A 0.000106362
4 *178:A *188:A 6.84915e-05
*RES
1 pix_in[4] *178:A 40.1936 
*END

*D_NET *63 0.000525728
*CONN
*P pix_in[5] I
*I *179:A I *D BUF_X1
*CAP
1 pix_in[5] 0.000212504
2 *179:A 0.000212504
3 *179:A *188:A 0.00010072
*RES
1 pix_in[5] *179:A 38.765 
*END

*D_NET *64 0.00175942
*CONN
*P pix_in[6] I
*I *180:A I *D BUF_X1
*CAP
1 pix_in[6] 0.000468047
2 *180:A 0
3 *64:19 0.000468047
4 *64:19 *189:A 0.000475327
5 *64:19 *65:17 0.00018154
6 *64:19 *74:19 0.000166463
*RES
1 pix_in[6] *64:19 45.0436 
2 *64:19 *180:A 10 
*END

*D_NET *65 0.00136084
*CONN
*P pix_in[7] I
*I *181:A I *D BUF_X1
*CAP
1 pix_in[7] 0.000504605
2 *181:A 0
3 *65:17 0.000504605
4 *65:17 *189:A 3.6302e-06
5 *65:17 *74:19 0.000166463
6 *64:19 *65:17 0.00018154
*RES
1 pix_in[7] *65:17 45.155 
2 *65:17 *181:A 5 
*END

*D_NET *75 0.000897771
*CONN
*P pix_out O
*I *191:Z O *D BUF_X1
*CAP
1 pix_out 0.000199806
2 *191:Z 0.000236334
3 *75:14 0.00043614
4 *37:11 pix_out 5.67718e-06
5 *37:13 *75:14 0
6 *47:12 *75:14 7.14424e-06
7 *66:11 pix_out 1.26687e-05
*RES
1 *191:Z *75:14 44.3572 
2 *75:14 pix_out 8.7975 
*END

*D_NET *66 0.00142386
*CONN
*P rst_n I
*I *182:A I *D BUF_X1
*CAP
1 rst_n 4.5022e-05
2 *182:A 0
3 *66:15 0.000241803
4 *66:11 0.000286825
5 *66:11 pix_out 1.26687e-05
6 *37:11 *66:11 3.52943e-05
7 *37:13 *66:15 0.000802252
*RES
1 rst_n *66:11 9.8675 
2 *66:11 *66:15 46.9286 
3 *66:15 *182:A 5 
*END

*D_NET *67 0.00063922
*CONN
*P threshold[0] I
*I *183:A I *D BUF_X1
*CAP
1 threshold[0] 0.000196754
2 *183:A 0.000196754
3 *183:A *184:A 0.000158719
4 *183:A *185:A 8.86665e-06
5 *183:A *186:A 7.69334e-05
6 *102:A *183:A 1.19327e-06
7 *102:B *183:A 0
8 *174:A *183:A 0
*RES
1 threshold[0] *183:A 32.7736 
*END

*D_NET *68 0.000663014
*CONN
*P threshold[1] I
*I *184:A I *D BUF_X1
*CAP
1 threshold[1] 0.000172072
2 *184:A 0.000172072
3 *184:A *185:A 0
4 *102:A *184:A 2.75346e-06
5 *174:A *184:A 0.000157398
6 *183:A *184:A 0.000158719
7 *25:12 *184:A 0
*RES
1 threshold[1] *184:A 33.3179 
*END

*D_NET *69 0.000370054
*CONN
*P threshold[2] I
*I *185:A I *D BUF_X1
*CAP
1 threshold[2] 0.00017616
2 *185:A 0.00017616
3 *185:A *186:A 8.86665e-06
4 *183:A *185:A 8.86665e-06
5 *184:A *185:A 0
*RES
1 threshold[2] *185:A 37.525 
*END

*D_NET *70 0.000668696
*CONN
*P threshold[3] I
*I *186:A I *D BUF_X1
*CAP
1 threshold[3] 0.000181013
2 *186:A 0.000181013
3 *102:A *186:A 4.38826e-05
4 *102:B *186:A 1.51466e-05
5 *177:A *186:A 0.000161841
6 *183:A *186:A 7.69334e-05
7 *185:A *186:A 8.86665e-06
*RES
1 threshold[3] *186:A 34.175 
*END

*D_NET *71 0.000566179
*CONN
*P threshold[4] I
*I *187:A I *D BUF_X1
*CAP
1 threshold[4] 0.000229908
2 *187:A 0.000229908
3 *178:A *187:A 0.000106362
*RES
1 threshold[4] *187:A 39.9393 
*END

*D_NET *72 0.00054931
*CONN
*P threshold[5] I
*I *188:A I *D BUF_X1
*CAP
1 threshold[5] 0.000190049
2 *188:A 0.000190049
3 *178:A *188:A 6.84915e-05
4 *179:A *188:A 0.00010072
*RES
1 threshold[5] *188:A 38.8007 
*END

*D_NET *73 0.00142684
*CONN
*P threshold[6] I
*I *189:A I *D BUF_X1
*CAP
1 threshold[6] 0.00047394
2 *189:A 0.00047394
3 *64:19 *189:A 0.000475327
4 *65:17 *189:A 3.6302e-06
*RES
1 threshold[6] *189:A 49.5836 
*END

*D_NET *74 0.00130714
*CONN
*P threshold[7] I
*I *190:A I *D BUF_X1
*CAP
1 threshold[7] 0.000487108
2 *190:A 0
3 *74:19 0.000487108
4 *64:19 *74:19 0.000166463
5 *65:17 *74:19 0.000166463
*RES
1 threshold[7] *74:19 49.9407 
2 *74:19 *190:A 5 
*END
